unknown
(model
; cardinality of BoundSet is 2
(declare-sort BoundSet 0)
; rep: @uc_BoundSet_0
; rep: @uc_BoundSet_1
; cardinality of UnboundSet is 1
(declare-sort UnboundSet 0)
(declare-fun groundTerm_3 () UnboundSet)
(define-fun IsKeyTermOrPhrase ((BOUND_VARIABLE_389 BoundSet)) Bool true)
(define-fun IsUsedAmbiguously ((BOUND_VARIABLE_396 BoundSet) (BOUND_VARIABLE_397 BoundSet)) Bool true)
(define-fun IsFallacyOfEquivocation ((BOUND_VARIABLE_389 BoundSet)) Bool false)
(define-fun Occurs ((BOUND_VARIABLE_389 BoundSet)) Bool false)
)
sat
(model
; cardinality of BoundSet is 1
(declare-sort BoundSet 0)
; rep: @uc_BoundSet_0
; cardinality of UnboundSet is 1
(declare-sort UnboundSet 0)
(declare-fun groundTerm_5 () UnboundSet)
(define-fun IsKeyTermOrPhrase ((BOUND_VARIABLE_431 BoundSet)) Bool true)
(define-fun IsUsedAmbiguously ((BOUND_VARIABLE_438 BoundSet) (BOUND_VARIABLE_439 BoundSet)) Bool true)
(define-fun IsFallacyOfEquivocation ((BOUND_VARIABLE_431 BoundSet)) Bool false)
(define-fun Occurs ((BOUND_VARIABLE_431 BoundSet)) Bool true)
)
